NAME : sim161.123103.tour
COMMENT : Length = 123103
COMMENT : Found by LKH [Keld Helsgaun] Sat Sep 15 07:01:28 2018
TYPE : TOUR
DIMENSION : 161
TOUR_SECTION
1
102
119
76
65
103
141
136
5
70
138
104
73
62
40
28
67
61
38
133
34
145
21
135
79
121
18
32
95
86
88
125
120
72
11
78
14
157
122
146
37
15
109
139
58
96
6
152
111
107
94
22
131
29
64
30
98
51
17
114
89
82
12
134
39
47
117
147
100
25
142
90
20
9
42
144
149
44
99
24
105
124
41
55
3
160
27
36
92
140
43
23
4
77
10
113
101
33
50
150
48
123
143
87
8
127
130
68
159
59
116
57
46
132
161
118
31
128
156
154
137
129
2
13
54
153
26
7
83
148
69
19
71
81
155
56
151
63
85
97
53
45
93
80
112
66
110
75
84
158
106
91
16
126
60
52
74
49
35
108
115
-1
EOF
